c preprocessed version of celar08-wpp, 39 vertices, 283 edges
p td 39 283
0 1
0 6
0 7
0 13
0 5
0 4
0 14
0 15
0 12
0 17
0 18
0 19
0 21
0 26
0 20
0 27
0 30
0 8
0 16
22 0
1 2
1 5
1 4
1 14
1 8
1 10
1 12
1 16
1 21
1 26
1 30
1 3
1 11
1 24
1 25
2 3
2 4
2 14
2 8
2 10
2 12
2 16
2 26
2 29
2 9
2 21
22 2
3 4
3 8
3 10
3 12
3 16
3 21
3 26
3 27
3 29
3 28
3 9
3 14
22 3
5 4
4 11
4 14
4 10
4 12
4 21
4 26
4 24
4 25
4 30
4 8
4 16
6 5
13 5
5 14
5 15
5 12
5 17
5 18
5 19
5 21
5 20
5 27
5 30
5 8
5 10
5 16
6 7
6 13
6 14
6 15
6 17
6 18
6 19
6 20
6 8
6 16
7 8
7 16
7 21
7 26
7 27
7 11
7 10
7 24
22 7
9 8
8 15
8 16
8 22
8 21
8 27
8 12
8 17
8 26
8 29
8 24
8 28
9 10
9 12
9 21
9 26
9 27
9 16
11 10
14 10
10 12
10 17
10 18
10 19
10 21
10 26
10 27
10 29
10 24
10 28
11 12
11 29
11 17
11 18
11 19
11 26
11 27
13 12
14 12
15 12
12 16
12 21
12 26
12 27
12 28
12 30
12 17
12 18
12 19
13 14
13 15
13 17
13 18
13 19
13 21
13 20
13 30
13 24
14 15
14 17
14 18
14 19
14 21
14 26
14 20
14 27
14 24
14 28
14 30
15 16
15 17
15 18
15 19
15 21
15 20
15 27
15 30
15 24
15 28
16 17
16 22
16 26
16 27
16 29
16 24
16 28
16 21
17 18
17 19
17 20
17 28
17 24
18 19
18 20
18 24
18 28
19 20
19 24
19 28
23 19
21 20
20 30
22 21
21 26
21 27
21 30
23 22
22 26
22 27
22 29
23 24
24 25
29 24
24 28
26 25
28 25
26 27
29 28
31 6
31 32
31 7
31 23
31 33
31 34
31 35
31 36
31 37
32 6
32 7
32 23
32 33
32 34
32 35
32 36
32 37
33 6
33 7
33 23
33 34
33 35
33 36
33 37
34 6
34 7
34 23
34 35
34 36
34 37
34 38
35 38
35 6
35 7
35 8
35 16
35 22
35 23
35 36
35 37
36 38
36 6
36 7
36 8
36 16
36 23
36 37
37 38
37 6
37 7
37 8
37 16
37 23
38 31
38 32
38 33
38 19
38 23
38 24
